c SAT Generator for power-law distributed variable frequencies
c -g u -v 20 -c 91 -k 3 -p 2.750000 -b 3.200000 -f /home/schmidt/Devel/ni-kop-sat/data/ensemble/ruf20-91/ruf20-91-590 -u 1 -U 1 -s 1851370625
p cnf 20 91
-10 15 -18 0
-2 9 10 0
1 -12 18 0
4 6 9 0
8 -13 16 0
-1 -4 19 0
6 10 11 0
10 -12 -17 0
3 -4 13 0
-12 -13 20 0
2 7 -14 0
-6 -15 -17 0
1 -4 14 0
-1 11 15 0
4 -14 -17 0
6 -14 -19 0
1 2 -6 0
7 -9 19 0
-8 15 20 0
3 13 19 0
-7 -8 16 0
1 -11 20 0
11 13 15 0
1 -5 8 0
2 3 4 0
6 -19 20 0
4 -5 -15 0
-1 -2 5 0
1 9 18 0
-2 7 13 0
2 -5 -17 0
-11 -14 -18 0
2 10 -19 0
10 -17 -19 0
10 -14 -16 0
6 9 -12 0
-1 2 15 0
7 14 -20 0
-4 10 17 0
-3 -12 20 0
12 17 18 0
-12 -14 15 0
1 14 -19 0
10 17 19 0
12 -18 -19 0
-2 -8 17 0
7 -10 20 0
-1 -10 -16 0
-13 -17 -20 0
-12 -14 -17 0
-5 12 -18 0
4 10 -19 0
5 -6 17 0
11 16 -17 0
-1 2 14 0
1 -15 -18 0
5 8 -20 0
10 11 16 0
-2 12 17 0
1 14 19 0
10 17 -19 0
10 16 17 0
-7 11 19 0
4 -15 -20 0
3 5 7 0
8 19 20 0
7 -15 19 0
-1 -4 -6 0
-7 -13 16 0
-4 10 19 0
16 17 -18 0
7 -14 17 0
-3 19 -20 0
9 16 -17 0
2 -4 8 0
-5 -9 16 0
-3 -7 -16 0
-3 13 -15 0
-9 14 -20 0
-15 17 -20 0
-2 5 -6 0
11 -14 19 0
-11 13 -14 0
-3 -4 10 0
-7 -15 17 0
-3 13 15 0
-7 -9 -20 0
1 -6 -15 0
4 10 -18 0
6 -7 -17 0
-2 3 -8 0
